language Essence 1.3

letting class be function(1 --> 1, 2 --> 1, 3 --> 1, 4 --> 1, 5 --> 1, 6 --> 1, 7 --> 1, 8 --> 1)
letting deck_length be 16
letting deck_width be 36
letting length be function(1 --> 3, 2 --> 16, 3 --> 3, 4 --> 11, 5 --> 11, 6 --> 7, 7 --> 16, 8 --> 14)
letting n_classes be 1
letting n_containers be 8
letting separation be function()
letting width be function(1 --> 10, 2 --> 23, 3 --> 1, 4 --> 1, 5 --> 1, 6 --> 2, 7 --> 3, 8 --> 4)
